8764498268560991237505,9,1,2,011,9,1,2,013,7,1,2,09,6,1,2,015,12,1,2,04,2,1,2,014,14,1,2,09,9,1,2,07,4,1,2,011,2,1,2,012,10,1,2,07,5,1,2,015,15,1,2,011,5,1,2,02,3,1,2,08,1,1,2,06,11,1,2,04,7,1,2,010,10,1,2,013,11,1,2,014,6,1,2,08,14,1,2,06,4,1,2,09,9,1,2,014,10,1,2,05,6,1,2,02,2,1,2,014,8,1,2,04,9,1,2,013,3,1,2,01,4,1,2,012,10,1,2,012,3,1,2,010,15,1,2,013,11,1,2,015,6,1,2,04,15,1,2,014,7,1,2,015,15,1,2,010,6,1,2,01,10,1,2,03,13,1,2,05,9,1,2,015,14,1,2,012,2,1,2,013,10,1,2,08,15,1,2,015,6,1,2,07,2,1,2,011,5,1,2,0